 &input
  zasr='simple',  fildyn='ZrN.dyn', flfrc='ZrN.fc',la2f=.false.
 /
