&CONTROL
calculation =  'nscf'
restart_mode =  'from_scratch'
outdir = './tmp/'
pseudo_dir =  '/public1/home/sc40125/pseudo/pbe'
prefix =  'ZrN'
verbosity='high'
wf_collect=.true.
/
&SYSTEM
ibrav= 6
celldm(1) =     5.9540424190
celldm(3) =     5.0257316998
nat = 4
ntyp = 2
ecutwfc =  50
ecutrho =  200
occupations = 'smearing'
smearing ='gaussian'
degauss = 0.01
!la2f=.true.
nbnd=24
/
&ELECTRONS
conv_thr=1.d-12
/
ATOMIC_SPECIES
Zr   91.22400 Zr.pbe-mt_fhi.UPF
N    14.00670 N.pbe-mt_fhi.UPF
ATOMIC_POSITIONS crystal
Zr       1.000000000   1.000000000   0.432173947
Zr       0.500000000   0.500000000   0.567819456
N        1.000000000   1.000000000   0.585259953
N        0.500000000   0.500000000   0.414746643
K_POINTS crystal
81
  0.00000000  0.00000000  0.00000000  1.234568e-02 
  0.00000000  0.11111111  0.00000000  1.234568e-02 
  0.00000000  0.22222222  0.00000000  1.234568e-02 
  0.00000000  0.33333333  0.00000000  1.234568e-02 
  0.00000000  0.44444444  0.00000000  1.234568e-02 
  0.00000000  0.55555556  0.00000000  1.234568e-02 
  0.00000000  0.66666667  0.00000000  1.234568e-02 
  0.00000000  0.77777778  0.00000000  1.234568e-02 
  0.00000000  0.88888889  0.00000000  1.234568e-02 
  0.11111111  0.00000000  0.00000000  1.234568e-02 
  0.11111111  0.11111111  0.00000000  1.234568e-02 
  0.11111111  0.22222222  0.00000000  1.234568e-02 
  0.11111111  0.33333333  0.00000000  1.234568e-02 
  0.11111111  0.44444444  0.00000000  1.234568e-02 
  0.11111111  0.55555556  0.00000000  1.234568e-02 
  0.11111111  0.66666667  0.00000000  1.234568e-02 
  0.11111111  0.77777778  0.00000000  1.234568e-02 
  0.11111111  0.88888889  0.00000000  1.234568e-02 
  0.22222222  0.00000000  0.00000000  1.234568e-02 
  0.22222222  0.11111111  0.00000000  1.234568e-02 
  0.22222222  0.22222222  0.00000000  1.234568e-02 
  0.22222222  0.33333333  0.00000000  1.234568e-02 
  0.22222222  0.44444444  0.00000000  1.234568e-02 
  0.22222222  0.55555556  0.00000000  1.234568e-02 
  0.22222222  0.66666667  0.00000000  1.234568e-02 
  0.22222222  0.77777778  0.00000000  1.234568e-02 
  0.22222222  0.88888889  0.00000000  1.234568e-02 
  0.33333333  0.00000000  0.00000000  1.234568e-02 
  0.33333333  0.11111111  0.00000000  1.234568e-02 
  0.33333333  0.22222222  0.00000000  1.234568e-02 
  0.33333333  0.33333333  0.00000000  1.234568e-02 
  0.33333333  0.44444444  0.00000000  1.234568e-02 
  0.33333333  0.55555556  0.00000000  1.234568e-02 
  0.33333333  0.66666667  0.00000000  1.234568e-02 
  0.33333333  0.77777778  0.00000000  1.234568e-02 
  0.33333333  0.88888889  0.00000000  1.234568e-02 
  0.44444444  0.00000000  0.00000000  1.234568e-02 
  0.44444444  0.11111111  0.00000000  1.234568e-02 
  0.44444444  0.22222222  0.00000000  1.234568e-02 
  0.44444444  0.33333333  0.00000000  1.234568e-02 
  0.44444444  0.44444444  0.00000000  1.234568e-02 
  0.44444444  0.55555556  0.00000000  1.234568e-02 
  0.44444444  0.66666667  0.00000000  1.234568e-02 
  0.44444444  0.77777778  0.00000000  1.234568e-02 
  0.44444444  0.88888889  0.00000000  1.234568e-02 
  0.55555556  0.00000000  0.00000000  1.234568e-02 
  0.55555556  0.11111111  0.00000000  1.234568e-02 
  0.55555556  0.22222222  0.00000000  1.234568e-02 
  0.55555556  0.33333333  0.00000000  1.234568e-02 
  0.55555556  0.44444444  0.00000000  1.234568e-02 
  0.55555556  0.55555556  0.00000000  1.234568e-02 
  0.55555556  0.66666667  0.00000000  1.234568e-02 
  0.55555556  0.77777778  0.00000000  1.234568e-02 
  0.55555556  0.88888889  0.00000000  1.234568e-02 
  0.66666667  0.00000000  0.00000000  1.234568e-02 
  0.66666667  0.11111111  0.00000000  1.234568e-02 
  0.66666667  0.22222222  0.00000000  1.234568e-02 
  0.66666667  0.33333333  0.00000000  1.234568e-02 
  0.66666667  0.44444444  0.00000000  1.234568e-02 
  0.66666667  0.55555556  0.00000000  1.234568e-02 
  0.66666667  0.66666667  0.00000000  1.234568e-02 
  0.66666667  0.77777778  0.00000000  1.234568e-02 
  0.66666667  0.88888889  0.00000000  1.234568e-02 
  0.77777778  0.00000000  0.00000000  1.234568e-02 
  0.77777778  0.11111111  0.00000000  1.234568e-02 
  0.77777778  0.22222222  0.00000000  1.234568e-02 
  0.77777778  0.33333333  0.00000000  1.234568e-02 
  0.77777778  0.44444444  0.00000000  1.234568e-02 
  0.77777778  0.55555556  0.00000000  1.234568e-02 
  0.77777778  0.66666667  0.00000000  1.234568e-02 
  0.77777778  0.77777778  0.00000000  1.234568e-02 
  0.77777778  0.88888889  0.00000000  1.234568e-02 
  0.88888889  0.00000000  0.00000000  1.234568e-02 
  0.88888889  0.11111111  0.00000000  1.234568e-02 
  0.88888889  0.22222222  0.00000000  1.234568e-02 
  0.88888889  0.33333333  0.00000000  1.234568e-02 
  0.88888889  0.44444444  0.00000000  1.234568e-02 
  0.88888889  0.55555556  0.00000000  1.234568e-02 
  0.88888889  0.66666667  0.00000000  1.234568e-02 
  0.88888889  0.77777778  0.00000000  1.234568e-02 
  0.88888889  0.88888889  0.00000000  1.234568e-02 
